54398
14, 9, 12, 18, 4, 30, 47, 54, 34, 53, 26, 49, 55, 28, 3, 6, 43, 40, 51, 37, 7, 20, 50, 24, 35, 5, 13, 41, 32, 8, 38, 44, 19, 48, 17, 23, 21, 29, 10, 22, 46, 36, 39, 15, 16, 52, 45, 11, 25, 31, 1, 27, 33, 42, 2
